instances/knapsack/knapsack_interdiction/knapsack_20_1_3.kp
42
20
2186

160 16.0 260 47.96
270 27.0 370 53.42
340 34.0 440 67.26
799 80.0 899 139.46
970 97.0 1070 143.26
200 20.0 300 49.18
43 4.0 143 27.17
316 32.0 416 44.59
932 93.0 1032 161.09
730 73.0 830 104.92
746 75.0 846 140.07
129 13.0 229 37.18
349 35.0 449 46.95
66 7.0 166 18.47
404 40.0 504 77.03
772 77.0 872 162.07
5 0.0 105 18.88
839 84.0 939 171.26
506 51.0 606 68.91
171 17.0 271 36.6

42
[957]

[[10, 1, 13, 8, 14, 7, 33, 36, 24, 11, 11, 24, 6, 26, 23, 32, 35, 7, 4, 44]]

[[118, 323, 55, 823, 393, 757, 934, 957, 683, 830, 596, 266, 372, 758, 926, 84, 404, 651, 149, 139]]
